
Gurobi 8.1.1 (win64, Python) logging started 10/05/20 14:03:52

Academic license - for non-commercial use only

Gurobi 8.1.1 (win64, Python) logging started 10/05/20 14:23:19

Academic license - for non-commercial use only
